
Gurobi 9.1.2 (win64, Java) logging started Thu Nov 11 18:22:52 2021

Academic license - for non-commercial use only - expires 2022-10-30
Gurobi Optimizer version 9.1.2 build v9.1.2rc0 (win64)
Thread count: 6 physical cores, 12 logical processors, using up to 12 threads
Optimize a model with 50 rows, 400 columns and 800 nonzeros
Model fingerprint: 0x764470ba
Variable types: 0 continuous, 400 integer (400 binary)
Coefficient statistics:
  Matrix range     [1e+00, 1e+03]
  Objective range  [6e+01, 1e+03]
  Bounds range     [1e+00, 1e+00]
  RHS range        [1e+00, 2e+03]
Found heuristic solution: objective 14695.000000
Presolve removed 0 rows and 146 columns
Presolve time: 0.00s
Presolved: 50 rows, 254 columns, 508 nonzeros
Variable types: 0 continuous, 254 integer (254 binary)
Presolved: 50 rows, 254 columns, 508 nonzeros


Root relaxation: objective 1.658194e+04, 175 iterations, 0.00 seconds

    Nodes    |    Current Node    |     Objective Bounds      |     Work
 Expl Unexpl |  Obj  Depth IntInf | Incumbent    BestBd   Gap | It/Node Time

     0     0 16581.9410    0   11 14695.0000 16581.9410  12.8%     -    0s
H    0     0                    15877.000000 16581.9410  4.44%     -    0s
     0     0 16576.7987    0   26 15877.0000 16576.7987  4.41%     -    0s
     0     0 16576.7987    0   28 15877.0000 16576.7987  4.41%     -    0s
     0     0 16521.0169    0   36 15877.0000 16521.0169  4.06%     -    0s
H    0     0                    16160.000000 16521.0169  2.23%     -    0s
     0     0 16520.6433    0   33 16160.0000 16520.6433  2.23%     -    0s
     0     0 16520.6433    0   34 16160.0000 16520.6433  2.23%     -    0s
     0     0 16516.3726    0   27 16160.0000 16516.3726  2.21%     -    0s
     0     0 16516.3726    0   30 16160.0000 16516.3726  2.21%     -    0s
     0     0 16515.9542    0   29 16160.0000 16515.9542  2.20%     -    0s
     0     0 16515.9542    0   29 16160.0000 16515.9542  2.20%     -    0s
H    0     0                    16283.000000 16515.9542  1.43%     -    0s
     0     0 16515.9542    0   14 16283.0000 16515.9542  1.43%     -    0s
     0     0 16515.9542    0   30 16283.0000 16515.9542  1.43%     -    0s
     0     0 16515.9542    0   34 16283.0000 16515.9542  1.43%     -    0s
     0     0 16515.9542    0   31 16283.0000 16515.9542  1.43%     -    0s
     0     0 16499.0813    0   29 16283.0000 16499.0813  1.33%     -    0s
     0     0 16499.0813    0   29 16283.0000 16499.0813  1.33%     -    0s
     0     0 16496.5764    0   36 16283.0000 16496.5764  1.31%     -    0s
     0     0 16496.5018    0   39 16283.0000 16496.5018  1.31%     -    0s
     0     0 16496.4305    0   38 16283.0000 16496.4305  1.31%     -    0s
     0     0 16492.6740    0   31 16283.0000 16492.6740  1.29%     -    0s
     0     0 16492.5827    0   27 16283.0000 16492.5827  1.29%     -    0s
     0     0 16492.5827    0   33 16283.0000 16492.5827  1.29%     -    0s
     0     0 16491.5508    0   31 16283.0000 16491.5508  1.28%     -    0s
     0     0 16491.5508    0   32 16283.0000 16491.5508  1.28%     -    0s
     0     0 16489.5977    0   26 16283.0000 16489.5977  1.27%     -    0s
     0     0 16489.5977    0   29 16283.0000 16489.5977  1.27%     -    0s
     0     0 16489.5977    0   29 16283.0000 16489.5977  1.27%     -    0s
     0     0 16489.5977    0   23 16283.0000 16489.5977  1.27%     -    0s
     0     2 16489.5977    0   19 16283.0000 16489.5977  1.27%     -    0s
H    7    14                    16444.000000 16487.9898  0.27%  10.9    0s

Cutting planes:
  Gomory: 12
  Cover: 290
  Clique: 3
  MIR: 34
  StrongCG: 27
  Flow cover: 6
  Inf proof: 2
  Zero half: 1

Explored 21428 nodes (333354 simplex iterations) in 2.77 seconds
Thread count was 12 (of 12 available processors)

Solution count 5: 16444 16283 16160 ... 14695

Optimal solution found (tolerance 1.00e-12)
Best objective 1.644400000000e+04, best bound 1.644400000000e+04, gap 0.0000%
